#######################



#######################
Set parameter TimeLimit to value 300
Set parameter SoftMemLimit to value 125
Set parameter LogFile to value 1202-MIPFocus0-Presolve2-TimeLimit300-k16x240-5.log
Set parameter Presolve to value 2
Set parameter Seed to value 5
Using license file /opt/gurobi/gurobi.lic

Gurobi Optimizer version 12.0.2 build v12.0.2rc0 (linux64 - "Ubuntu 22.04.4 LTS")
Copyright (c) 2025, Gurobi Optimization, LLC

Read MPS format model from file /miplib2010/k16x240.mps.bz2
Reading time = 0.00 seconds
k16x240: 256 rows, 480 columns, 960 nonzeros

Using Gurobi shared library /nfs/shared/static-builds/gurobi1202

CPU model: Intel(R) Xeon(R) E-2388G CPU @ 3.20GHz, instruction set [SSE2|AVX|AVX2|AVX512]
Thread count: 8 physical cores, 16 logical processors, using up to 16 threads

Non-default parameters:
TimeLimit  300
SoftMemLimit  125
Presolve  2
Seed  5

Optimize a model with 256 rows, 480 columns and 960 nonzeros
Model fingerprint: 0x4e80885f
Variable types: 240 continuous, 240 integer (240 binary)
Coefficient statistics:
  Matrix range     [1e+00, 1e+03]
  Objective range  [1e+00, 1e+03]
  Bounds range     [1e+00, 1e+03]
  RHS range        [4e+00, 4e+02]
Found heuristic solution: objective 27987.000000
Presolve time: 0.00s
Presolved: 256 rows, 480 columns, 960 nonzeros
Variable types: 240 continuous, 240 integer (240 binary)
Root relaxation presolve removed 241 rows and 240 columns
Root relaxation presolved: 15 rows, 240 columns, 450 nonzeros


Root relaxation: objective 2.769838e+03, 16 iterations, 0.00 seconds (0.00 work units)

    Nodes    |    Current Node    |     Objective Bounds      |     Work
 Expl Unexpl |  Obj  Depth IntInf | Incumbent    BestBd   Gap | It/Node Time

     0     0 2769.83800    0   14 27987.0000 2769.83800  90.1%     -    0s
H    0     0                    11359.000000 2769.83800  75.6%     -    0s
H    0     0                    11262.000000 2769.83800  75.4%     -    0s
     0     0 8084.69631    0   26 11262.0000 8084.69631  28.2%     -    0s
H    0     0                    11241.000000 8151.01974  27.5%     -    0s
H    0     0                    11193.000000 8151.01974  27.2%     -    0s
H    0     0                    11170.000000 8151.01974  27.0%     -    0s
H    0     0                    11164.000000 8151.01974  27.0%     -    0s
H    0     0                    11079.000000 8151.01974  26.4%     -    0s
     0     0 8528.16906    0   24 11079.0000 8528.16906  23.0%     -    0s
H    0     0                    11061.000000 8539.49533  22.8%     -    0s
H    0     0                    11036.000000 8539.49533  22.6%     -    0s
     0     0 8539.49533    0   34 11036.0000 8539.49533  22.6%     -    0s
     0     0 8548.03675    0   29 11036.0000 8548.03675  22.5%     -    0s
     0     0 8708.61573    0   34 11036.0000 8708.61573  21.1%     -    0s
H    0     0                    10983.000000 8709.06517  20.7%     -    0s
H    0     0                    10877.000000 8709.06517  19.9%     -    0s
H    0     0                    10823.000000 8709.06517  19.5%     -    0s
     0     0 8759.07726    0   27 10823.0000 8759.07726  19.1%     -    0s
     0     0 8759.26237    0   29 10823.0000 8759.26237  19.1%     -    0s
     0     0 8854.51423    0   32 10823.0000 8854.51423  18.2%     -    0s
     0     0 8874.84800    0   37 10823.0000 8874.84800  18.0%     -    0s
     0     0 8879.98199    0   37 10823.0000 8879.98199  18.0%     -    0s
H    0     0                    10794.000000 9013.03432  16.5%     -    0s
     0     0 9013.03432    0   33 10794.0000 9013.03432  16.5%     -    0s
H    0     0                    10750.000000 9018.15592  16.1%     -    0s
     0     0 9024.33758    0   35 10750.0000 9024.33758  16.1%     -    0s
     0     0 9031.61077    0   41 10750.0000 9031.61077  16.0%     -    0s
     0     0 9112.11548    0   44 10750.0000 9112.11548  15.2%     -    0s
     0     0 9125.25966    0   38 10750.0000 9125.25966  15.1%     -    0s
     0     0 9127.27725    0   41 10750.0000 9127.27725  15.1%     -    0s
     0     0 9138.92194    0   38 10750.0000 9138.92194  15.0%     -    0s
     0     0 9145.30017    0   36 10750.0000 9145.30017  14.9%     -    0s
     0     0 9153.97140    0   44 10750.0000 9153.97140  14.8%     -    0s
     0     0 9154.25933    0   44 10750.0000 9154.25933  14.8%     -    0s
     0     2 9154.60139    0   44 10750.0000 9154.60139  14.8%     -    0s
H   37    64                    10748.000000 9216.99586  14.2%  44.2    0s
H 1332  1103                    10746.000000 9394.41080  12.6%  18.3    0s
H 2111  1401                    10674.000000 9479.74831  11.2%  20.4    1s
 28911 10190 10270.9699   28   17 10674.0000 10058.3756  5.77%  29.9    5s
 65151 13919 10531.9058   26   21 10674.0000 10254.6887  3.93%  31.2   10s
 103859  7147 10547.4942   39    6 10674.0000 10448.6680  2.11%  31.2   15s

Cutting planes:
  Gomory: 2
  Lift-and-project: 15
  Cover: 54
  Implied bound: 17
  Dual implied bound: 39
  MIR: 178
  Flow cover: 311
  Flow path: 43
  Zero half: 4
  Network: 68
  Relax-and-lift: 2

Explored 117192 nodes (3539686 simplex iterations) in 16.58 seconds (22.56 work units)
Thread count was 16 (of 16 available processors)

Solution count 10: 10674 10746 10748 ... 11061

Optimal solution found (tolerance 1.00e-04)
Best objective 1.067400000000e+04, best bound 1.067400000000e+04, gap 0.0000%
